1184.0 13251.0 2880.0 
1243.0 13230.0 2856.0 
1193.0 13250.0 2806.0 
1203.0 13175.0 2987.0 
1253.0 13265.0 2787.0 
1163.0 13397.0 2954.0 
1170.0 13303.0 3002.0 
1212.0 13110.0 2922.0 
1138.0 13330.0 3074.0 
1178.0 13122.0 3026.0 
1183.0 13251.0 2906.0 
1255.0 13225.0 2777.0 
1156.0 13359.0 2965.0 
1193.0 13250.0 2806.0 
1255.0 13225.0 2777.0 
1168.0 13227.0 3245.0 
1172.0 13310.0 2858.0 
1173.0 13296.0 2878.0 
1203.0 13175.0 2987.0 
1168.0 13203.0 3295.0 
1288.0 13200.0 2852.0 
1211.0 13234.0 2904.0 
